921
100
94 526
31 134
19 102
14 81
135 704
31 127
237 963
223 1131
111 525
199 944
172 713
85 390
203 823
83 401
109 521
147 820
93 450
235 1211
186 791
148 613
74 443
368 2064
77 354
263 1578
279 1665
177 827
290 1574
320 1775
219 1188
229 993
215 1240
329 1765
233 1256
22 116
214 988
41 185
60 262
69 285
160 733
194 947
111 575
119 543
140 830
318 1418
179 920
117 669
60 287
67 344
38 210
45 225
415 2351
71 387
122 559
98 443
311 1323
15 84
222 1153
131 620
38 199
246 1223
205 1167
58 233
74 320
201 1056
115 624
241 1072
129 648
204 849
54 261
165 927
71 402
110 466
91 501
196 984
25 138
188 846
78 438
138 582
197 1038
104 493
75 371
169 684
187 1056
116 589
217 905
180 811
181 1030
97 536
36 191
140 662
129 624
192 778
312 1405
73 328
105 524
85 421
161 855
221 1083
175 739
81 480 